slay10h.py
Ipopt 3.12.8: 
==> Warning: Treating 180 binary and 0 integer variables as continous.


******************************************************************************
This program contains Ipopt, a library for large-scale nonlinear optimization.
 Ipopt is released as open source code under the Eclipse Public License (EPL).
         For more information visit http://projects.coin-or.org/Ipopt
******************************************************************************

This is Ipopt version 3.12.8, running with linear solver ma27.

Number of nonzeros in equality constraint Jacobian...:     1080
Number of nonzeros in inequality constraint Jacobian.:     2520
Number of nonzeros in Lagrangian Hessian.............:       20

Total number of variables............................:     1010
                     variables with only lower bounds:      810
                variables with lower and upper bounds:      200
                     variables with only upper bounds:        0
Total number of equality constraints.................:      225
Total number of inequality constraints...............:     1080
        inequality constraints with only lower bounds:      180
   inequality constraints with lower and upper bounds:        0
        inequality constraints with only upper bounds:      900

iter    objective    inf_pr   inf_du lg(mu)  ||d||  lg(rg) alpha_du alpha_pr  ls
   0  8.1768694e+05 4.00e+00 8.92e+00  -1.0 0.00e+00    -  0.00e+00 0.00e+00   0
   1  8.1897627e+05 3.93e+00 8.63e+00  -1.0 9.65e+00    -  1.03e-02 1.71e-02f  1
   2  8.1850619e+05 3.90e+00 8.33e+00  -1.0 9.19e+00    -  1.14e-02 7.95e-03f  1
   3  7.8858786e+05 2.68e+00 2.14e+01  -1.0 8.82e+00    -  1.78e-02 3.13e-01f  1
   4  7.7781150e+05 2.54e+00 2.05e+01  -1.0 6.04e+00    -  1.88e-02 5.15e-02f  1
   5  7.6894581e+05 2.47e+00 2.00e+01  -1.0 7.48e+00    -  1.91e-02 2.73e-02f  1
   6  7.4490376e+05 2.34e+00 1.90e+01  -1.0 6.05e+00    -  6.43e-03 5.32e-02f  1
   7  6.0607380e+05 1.85e+00 1.54e+01  -1.0 9.80e+00    -  6.56e-02 2.08e-01f  1
   8  4.8934484e+05 1.54e+00 1.27e+01  -1.0 1.11e+01    -  7.39e-02 1.68e-01f  1
   9  3.7334108e+05 1.20e+00 9.85e+00  -1.0 9.88e+00    -  1.20e-01 2.22e-01f  1
iter    objective    inf_pr   inf_du lg(mu)  ||d||  lg(rg) alpha_du alpha_pr  ls
  10  3.1056740e+05 9.83e-01 8.00e+00  -1.0 8.22e+00    -  5.24e-02 1.81e-01f  1
  11  2.6631509e+05 8.08e-01 6.56e+00  -1.0 7.76e+00    -  1.45e-01 1.78e-01f  1
  12  1.9791231e+05 4.87e-01 3.77e+00  -1.0 9.50e+00    -  5.50e-02 3.97e-01f  1
  13  1.4563050e+05 1.67e-01 1.65e+00  -1.0 1.17e+01    -  2.18e-01 6.58e-01f  1
  14  1.3167437e+05 8.28e-02 8.40e-01  -1.0 1.02e+01    -  3.52e-01 5.03e-01f  1
  15  1.2180002e+05 3.55e-15 8.43e-01  -1.0 7.83e+00    -  3.17e-01 1.00e+00f  1
  16  1.2103738e+05 4.44e-15 2.42e-01  -1.0 3.07e+00    -  6.39e-01 9.61e-01f  1
  17  1.2115252e+05 3.55e-15 1.00e-06  -1.0 2.20e+00    -  1.00e+00 1.00e+00f  1
  18  1.1944003e+05 4.44e-15 5.71e-02  -2.5 9.42e-01    -  9.99e-01 8.30e-01f  1
  19  1.1915564e+05 3.55e-15 2.83e-08  -2.5 2.35e+00    -  1.00e+00 1.00e+00f  1
iter    objective    inf_pr   inf_du lg(mu)  ||d||  lg(rg) alpha_du alpha_pr  ls
  20  1.1909839e+05 2.66e-15 4.70e-04  -3.8 3.06e-01    -  9.80e-01 9.69e-01f  1
  21  1.1909418e+05 3.55e-15 1.50e-09  -3.8 1.22e+00    -  1.00e+00 1.00e+00f  1
  22  1.1909071e+05 3.55e-15 3.21e-04  -5.7 4.96e-02    -  1.00e+00 9.62e-01f  1
  23  1.1909040e+05 4.44e-15 1.84e-11  -5.7 3.04e-01    -  1.00e+00 1.00e+00f  1
  24  1.1909034e+05 2.66e-15 3.53e-07  -8.6 1.61e-03    -  1.00e+00 9.99e-01f  1
  25  1.1909034e+05 3.55e-15 2.30e-01  -8.6 3.76e-02    -  2.72e-01 1.00e+00f  1
  26  1.1909034e+05 4.44e-15 2.53e-14  -8.6 1.42e-03    -  1.00e+00 1.00e+00h  1

Number of Iterations....: 26

                                   (scaled)                 (unscaled)
Objective...............:   6.7664968251940445e+02    1.1909034412341518e+05
Dual infeasibility......:   2.5313084961453569e-14    4.4551029532158282e-12
Constraint violation....:   4.4408920985006262e-15    4.4408920985006262e-15
Complementarity.........:   3.7162400640419575e-09    6.5405825127138446e-07
Overall NLP error.......:   3.7162400640419575e-09    6.5405825127138446e-07


Number of objective function evaluations             = 27
Number of objective gradient evaluations             = 27
Number of equality constraint evaluations            = 27
Number of inequality constraint evaluations          = 27
Number of equality constraint Jacobian evaluations   = 27
Number of inequality constraint Jacobian evaluations = 27
Number of Lagrangian Hessian evaluations             = 26
Total CPU secs in IPOPT (w/o function evaluations)   =      0.076
Total CPU secs in NLP function evaluations           =      0.000

EXIT: Optimal Solution Found.

Time elapsed: 0.230834960938